29
17
127
28
32
25
43
15
55
40
23
16
0
48
44
36
79
24
0
0
37
50
0
35
41
44
0
36
39
0
0
34
0
0
0
30
55
35
13
27
33
25
0
14
0
31
22
25
0
41
18
26
0
0
28
15
0
29
20
22
61
50
0
32
0
16
59
32
28
101
27
44
0
0
0
0
45
19
48
25
81
0
0
56
23
87
37
34
38
33
0
53
22
403
26
0
32
21
24
86
